BAYES
100
2 2 2 2 2 2 2 2 2 2 2 2 2 2 2 2 2 2 2 2 2 2 2 2 2 2 2 2 2 2 2 2 2 2 2 2 2 2 2 2 2 2 2 2 2 2 2 2 2 2 2 2 2 2 2 2 2 2 2 2 2 2 2 2 2 2 2 2 2 2 2 2 2 2 2 2 2 2 2 2 2 2 2 2 2 2 2 2 2 2 2 2 2 2 2 2 2 2 2 2
100
1 0
2 0 1
2 1 2
2 2 3
2 3 4
2 4 5
2 5 6
2 6 7
2 7 8
2 8 9
2 0 10
3 1 10 11
3 2 11 12
3 3 12 13
3 4 13 14
3 5 14 15
3 6 15 16
3 7 16 17
3 8 17 18
3 9 18 19
2 10 20
3 11 20 21
3 12 21 22
3 13 22 23
3 14 23 24
3 15 24 25
3 16 25 26
3 17 26 27
3 18 27 28
3 19 28 29
2 20 30
3 21 30 31
3 22 31 32
3 23 32 33
3 24 33 34
3 25 34 35
3 26 35 36
3 27 36 37
3 28 37 38
3 29 38 39
2 30 40
3 31 40 41
3 32 41 42
3 33 42 43
3 34 43 44
3 35 44 45
3 36 45 46
3 37 46 47
3 38 47 48
3 39 48 49
2 40 50
3 41 50 51
3 42 51 52
3 43 52 53
3 44 53 54
3 45 54 55
3 46 55 56
3 47 56 57
3 48 57 58
3 49 58 59
2 50 60
3 51 60 61
3 52 61 62
3 53 62 63
3 54 63 64
3 55 64 65
3 56 65 66
3 57 66 67
3 58 67 68
3 59 68 69
2 60 70
3 61 70 71
3 62 71 72
3 63 72 73
3 64 73 74
3 65 74 75
3 66 75 76
3 67 76 77
3 68 77 78
3 69 78 79
2 70 80
3 71 80 81
3 72 81 82
3 73 82 83
3 74 83 84
3 75 84 85
3 76 85 86
3 77 86 87
3 78 87 88
3 79 88 89
2 80 90
3 81 90 91
3 82 91 92
3 83 92 93
3 84 93 94
3 85 94 95
3 86 95 96
3 87 96 97
3 88 97 98
3 89 98 99

2
0.861142 0.138858
4
0.0 1.0 1.0 0.0
4
0.447794 0.552206 0.0790394 0.920961
4
0.0 1.0 1.0 0.0
4
1.0 0.0 0.0 1.0
4
0.67503 0.32497 0.011004 0.988996
4
1.0 0.0 0.0 1.0
4
0.821509 0.178491 0.576813 0.423187
4
1.0 0.0 0.0 1.0
4
0.0 1.0 1.0 0.0
4
0.0 1.0 1.0 0.0
8
1.0 0.0 0.0 1.0 0.0 1.0 1.0 0.0
8
1.0 0.0 0.0 1.0 1.0 0.0 1.0 0.0
8
0.0935058 0.906494 0.226492 0.773508 0.984968 0.0150319 0.18755 0.81245
8
0.428157 0.571843 0.775965 0.224035 0.371525 0.628475 0.439161 0.560839
8
0.0 1.0 1.0 0.0 0.0 1.0 0.0 1.0
8
1.0 0.0 0.0 1.0 0.0 1.0 0.0 1.0
8
1.0 0.0 0.0 1.0 1.0 0.0 1.0 0.0
8
0.994913 0.00508684 0.123725 0.876275 0.329052 0.670948 0.142366 0.857634
8
0.422557 0.577443 0.368858 0.631142 0.980257 0.0197435 0.610108 0.389892
4
1.0 0.0 0.0 1.0
8
0.0 1.0 1.0 0.0 1.0 0.0 1.0 0.0
8
1.0 0.0 1.0 0.0 1.0 0.0 0.0 1.0
8
0.633577 0.366423 0.214418 0.785582 0.892776 0.107224 0.646123 0.353877
8
0.733526 0.266474 0.783688 0.216312 0.349585 0.650415 0.728439 0.271561
8
0.678637 0.321363 0.870804 0.129196 0.902701 0.097299 0.101194 0.898806
8
1.0 0.0 0.0 1.0 0.0 1.0 0.0 1.0
8
0.0 1.0 1.0 0.0 0.0 1.0 1.0 0.0
8
0.0 1.0 1.0 0.0 0.0 1.0 1.0 0.0
8
0.657394 0.342606 0.8949 0.1051 0.210224 0.789776 0.550171 0.449829
4
0.876469 0.123531 0.283696 0.716304
8
1.0 0.0 0.0 1.0 1.0 0.0 1.0 0.0
8
0.134825 0.865175 0.0058863 0.994114 0.122601 0.877399 0.0177822 0.982218
8
0.427616 0.572384 0.309153 0.690847 0.814563 0.185437 0.169509 0.830491
8
0.0 1.0 1.0 0.0 0.0 1.0 0.0 1.0
8
0.617674 0.382326 0.949304 0.0506956 0.66986 0.33014 0.275068 0.724932
8
0.880084 0.119916 0.825239 0.174761 0.385229 0.614771 0.756553 0.243447
8
0.0 1.0 0.0 1.0 0.0 1.0 1.0 0.0
8
0.00400881 0.995991 0.076888 0.923112 0.893187 0.106813 0.12661 0.87339
8
0.0 1.0 0.0 1.0 1.0 0.0 0.0 1.0
4
0.851923 0.148077 0.897685 0.102315
8
0.570389 0.429611 0.585666 0.414334 0.279395 0.720605 0.188063 0.811937
8
0.949255 0.0507451 0.463131 0.536869 0.379175 0.620825 0.829339 0.170661
8
0.0 1.0 1.0 0.0 0.0 1.0 0.0 1.0
8
0.518374 0.481626 0.416407 0.583593 0.455801 0.544199 0.522383 0.477617
8
1.0 0.0 0.0 1.0 1.0 0.0 1.0 0.0
8
0.0 1.0 1.0 0.0 0.0 1.0 1.0 0.0
8
0.0 1.0 1.0 0.0 0.0 1.0 0.0 1.0
8
0.0 1.0 0.0 1.0 1.0 0.0 0.0 1.0
8
1.0 0.0 0.0 1.0 1.0 0.0 1.0 0.0
4
0.269343 0.730657 0.436952 0.563048
8
1.0 0.0 0.0 1.0 0.0 1.0 0.0 1.0
8
0.643939 0.356061 0.510002 0.489998 0.89313 0.10687 0.570893 0.429107
8
0.0 1.0 1.0 0.0 1.0 0.0 0.0 1.0
8
0.369977 0.630023 0.445389 0.554611 0.675828 0.324172 0.435271 0.564729
8
0.0 1.0 0.0 1.0 1.0 0.0 0.0 1.0
8
0.793933 0.206067 0.18697 0.81303 0.809245 0.190755 0.230885 0.769115
8
1.0 0.0 1.0 0.0 0.0 1.0 1.0 0.0
8
0.445747 0.554253 0.685629 0.314371 0.189347 0.810653 0.338877 0.661123
8
1.0 0.0 0.0 1.0 1.0 0.0 0.0 1.0
4
0.274594 0.725406 0.680851 0.319149
8
1.0 0.0 0.0 1.0 1.0 0.0 1.0 0.0
8
0.0 1.0 0.0 1.0 1.0 0.0 0.0 1.0
8
1.0 0.0 0.0 1.0 0.0 1.0 0.0 1.0
8
1.0 0.0 1.0 0.0 1.0 0.0 0.0 1.0
8
1.0 0.0 0.0 1.0 0.0 1.0 0.0 1.0
8
0.0 1.0 1.0 0.0 0.0 1.0 0.0 1.0
8
1.0 0.0 1.0 0.0 0.0 1.0 1.0 0.0
8
0.259753 0.740247 0.29911 0.70089 0.0582891 0.941711 0.0564108 0.943589
8
1.0 0.0 1.0 0.0 0.0 1.0 1.0 0.0
4
1.0 0.0 0.0 1.0
8
1.0 0.0 0.0 1.0 0.0 1.0 0.0 1.0
8
0.0 1.0 0.0 1.0 1.0 0.0 0.0 1.0
8
0.613353 0.386647 0.158097 0.841903 0.301903 0.698097 0.641046 0.358954
8
0.010178 0.989822 0.898075 0.101925 0.222125 0.777875 0.623509 0.376491
8
0.0 1.0 0.0 1.0 1.0 0.0 1.0 0.0
8
0.298193 0.701807 0.0442994 0.955701 0.161958 0.838042 0.570822 0.429178
8
0.226491 0.773509 0.711473 0.288527 0.756857 0.243143 0.873518 0.126482
8
0.875883 0.124117 0.359563 0.640437 0.707938 0.292062 0.463692 0.536308
8
0.0 1.0 0.0 1.0 0.0 1.0 1.0 0.0
4
0.784276 0.215724 0.729768 0.270232
8
0.00640111 0.993599 0.353277 0.646723 0.773995 0.226005 0.527636 0.472364
8
1.0 0.0 0.0 1.0 0.0 1.0 0.0 1.0
8
0.0 1.0 1.0 0.0 0.0 1.0 1.0 0.0
8
0.587557 0.412443 0.291333 0.708667 0.478214 0.521786 0.46344 0.53656
8
0.186151 0.813849 0.927131 0.0728686 0.695231 0.304769 0.603838 0.396162
8
1.0 0.0 0.0 1.0 0.0 1.0 1.0 0.0
8
1.0 0.0 0.0 1.0 1.0 0.0 1.0 0.0
8
1.0 0.0 0.0 1.0 1.0 0.0 1.0 0.0
8
1.0 0.0 0.0 1.0 0.0 1.0 0.0 1.0
4
0.0 1.0 1.0 0.0
8
1.0 0.0 1.0 0.0 0.0 1.0 0.0 1.0
8
0.0 1.0 1.0 0.0 1.0 0.0 1.0 0.0
8
0.404694 0.595306 0.183105 0.816895 0.297115 0.702885 0.45789 0.54211
8
0.985457 0.0145431 0.864362 0.135638 0.633965 0.366035 0.201435 0.798565
8
0.0 1.0 0.0 1.0 1.0 0.0 1.0 0.0
8
1.0 0.0 1.0 0.0 1.0 0.0 0.0 1.0
8
0.0 1.0 1.0 0.0 1.0 0.0 0.0 1.0
8
0.947823 0.0521771 0.789844 0.210156 0.630277 0.369723 0.0290887 0.970911
8
0.0 1.0 0.0 1.0 1.0 0.0 1.0 0.0